3 
4 
5  05 21 36 51 
6  07 17 22 27 32 37 42 47 52 57 
7  02 07 12 17 22 27 32 37 42 47 52 57 
8  02 07 12 17 22 27 32 37 42 47 52 57 
9  02 07 12 17 22 27 32 38 44 52 59 
10  07 14 22 29 37 44 52 59 
11  07 14 22 29 37 44 52 59 
12  07 14 22 29 37 44 52 59 
13  07 14 21 29 37 44 52 59 
14  07 14 21 29 37 44 52 57 
15  02 06 12 17 22 27 32 36 42 47 51 57 
16  02 06 12 17 21 27 32 36 42 47 51 57 
17  02 06 12 17 21 27 32 36 42 47 52 57 
18  02 07 12 17 22 27 32 37 42 48 54 
19  00 07 14 22 29 37 44 52 58 
20  05 13 21 28 39 54 
21  01 09 24 39 54 
22  04 19 34 50 
23  05 
0 
